============================[ Problem Statistics ]=============================|                                                                             ||  Number of variables:          4242                                         ||  Number of clauses:           10216                                         ||  Parse time:                   0.60 s                                       ||                                                                             |============================[ Search Statistics ]==============================| Conflicts |          ORIGINAL         |          LEARNT          | Progress ||           |    Vars  Clauses Literals |    Limit  Clauses Lit/Cl |          |===============================================================================|       100 |    1591     6421   963212 |     2354      100     53 | 62.501 % ||       250 |    1591     6421   963212 |     2589      250     75 | 62.495 % |===============================================================================restarts              : 3conflicts             : 332            (365 /sec)decisions             : 596            (0.00 % random) (655 /sec)propagations          : 11917          (13096 /sec)conflict literals     : 26709          (94.66 % deleted)CPU time              : 0.91 sSATISFIABLE